; benchmark generated from python API
(set-info :status unknown)
(declare-datatypes ((IntState 0)) (((Mk1 (val1 Int)) (Mk2 (val2 Int)))))
 (declare-fun c_main_~n~22 () Int)
(declare-fun c_main_~f1~22 () Int)
(declare-fun |c_main_#t~ret12| () Int)
(assert
 (let (($x162 (<= c_main_~n~22 2)))
 (let (($x22 (exists ((v_nnf_35_st IntState) (val!80 Int) )(exists ((v_nnf_34_st IntState) (val!81 Int) )(let (($x162 (<= c_main_~n~22 2)))
 (let (($x143 (<= (+ c_main_~f1~22 (* 2 (val2 v_nnf_35_st)) (* 2 (val2 v_nnf_34_st)) 1) |c_main_#t~ret12|)))
 (let (($x77 (and $x143 (<= c_main_~f1~22 (val2 v_nnf_35_st)) (<= (val2 v_nnf_35_st) (val2 v_nnf_34_st)) $x162)))
 (let (($x52 (not (= v_nnf_34_st (Mk1 val!81)))))
 (let (($x132 (not (= v_nnf_35_st (Mk1 val!80)))))
 (and $x132 $x52 $x77)))))))
 )
 ))
 (let (($x133 (exists ((v_nnf_35 Int) )(exists ((v_nnf_34 Int) )(let (($x162 (<= c_main_~n~22 2)))
 (let (($x145 (<= (+ c_main_~f1~22 (* 2 v_nnf_35) (* 2 v_nnf_34) 1) |c_main_#t~ret12|)))
 (and $x145 (<= c_main_~f1~22 v_nnf_35) (<= v_nnf_35 v_nnf_34) $x162))))
 )
 ))
 (and $x133 (not (and $x22 $x162)))))))
(check-sat)
